p tw 47 50
1 2
2 13
3 4
3 6
4 5
5 34
6 7
7 8
8 9
9 10
10 11
11 12
12 14
13 24
14 15
15 16
16 17
16 22
17 18
18 19
18 26
19 20
20 21
20 29
21 32
22 23
23 25
24 35
25 34
26 27
27 28
28 34
29 30
30 31
31 34
32 33
33 34
34 36
35 43
36 37
37 38
38 39
39 40
40 41
41 42
43 44
44 45
45 46
46 47
47 3
